c colouring generated by benchmark framework
p edge 1000 245000
v 1 2
v 2 17
v 3 23
v 4 57
v 5 46
v 6 75
v 7 15
v 8 16
v 9 8
v 10 53
v 11 43
v 12 33
v 13 84
v 14 98
v 15 103
v 16 45
v 17 126
v 18 114
v 19 103
v 20 28
v 21 134
v 22 55
v 23 31
v 24 61
v 25 104
v 26 54
v 27 60
v 28 33
v 29 36
v 30 64
v 31 4
v 32 26
v 33 59
v 34 3
v 35 49
v 36 126
v 37 120
v 38 61
v 39 63
v 40 64
v 41 48
v 42 90
v 43 85
v 44 84
v 45 50
v 46 18
v 47 15
v 48 90
v 49 74
v 50 39
v 51 11
v 52 47
v 53 30
v 54 125
v 55 8
v 56 37
v 57 91
v 58 64
v 59 53
v 60 84
v 61 43
v 62 93
v 63 40
v 64 91
v 65 111
v 66 31
v 67 59
v 68 110
v 69 91
v 70 77
v 71 19
v 72 1
v 73 22
v 74 10
v 75 51
v 76 52
v 77 94
v 78 1
v 79 39
v 80 102
v 81 41
v 82 34
v 83 21
v 84 115
v 85 113
v 86 20
v 87 4
v 88 20
v 89 50
v 90 43
v 91 122
v 92 27
v 93 54
v 94 71
v 95 15
v 96 72
v 97 11
v 98 56
v 99 108
v 100 98
v 101 44
v 102 40
v 103 20
v 104 29
v 105 82
v 106 51
v 107 97
v 108 121
v 109 29
v 110 27
v 111 63
v 112 11
v 113 23
v 114 52
v 115 31
v 116 5
v 117 10
v 118 86
v 119 6
v 120 44
v 121 59
v 122 4
v 123 19
v 124 97
v 125 74
v 126 77
v 127 42
v 128 111
v 129 24
v 130 92
v 131 75
v 132 23
v 133 69
v 134 129
v 135 5
v 136 82
v 137 78
v 138 25
v 139 13
v 140 94
v 141 45
v 142 55
v 143 6
v 144 75
v 145 36
v 146 73
v 147 19
v 148 32
v 149 95
v 150 77
v 151 29
v 152 105
v 153 131
v 154 135
v 155 96
v 156 21
v 157 131
v 158 12
v 159 70
v 160 96
v 161 24
v 162 99
v 163 89
v 164 128
v 165 51
v 166 132
v 167 35
v 168 84
v 169 9
v 170 90
v 171 68
v 172 43
v 173 66
v 174 49
v 175 41
v 176 8
v 177 70
v 178 21
v 179 12
v 180 78
v 181 19
v 182 54
v 183 115
v 184 48
v 185 50
v 186 106
v 187 60
v 188 45
v 189 34
v 190 25
v 191 14
v 192 121
v 193 97
v 194 23
v 195 30
v 196 42
v 197 86
v 198 79
v 199 82
v 200 104
v 201 17
v 202 40
v 203 18
v 204 1
v 205 136
v 206 48
v 207 82
v 208 0
v 209 35
v 210 88
v 211 125
v 212 60
v 213 31
v 214 12
v 215 90
v 216 105
v 217 81
v 218 1
v 219 110
v 220 70
v 221 64
v 222 4
v 223 9
v 224 22
v 225 26
v 226 108
v 227 75
v 228 78
v 229 61
v 230 12
v 231 135
v 232 136
v 233 65
v 234 61
v 235 56
v 236 98
v 237 22
v 238 25
v 239 63
v 240 24
v 241 0
v 242 41
v 243 41
v 244 72
v 245 7
v 246 28
v 247 99
v 248 122
v 249 94
v 250 87
v 251 91
v 252 17
v 253 58
v 254 21
v 255 45
v 256 53
v 257 3
v 258 29
v 259 40
v 260 72
v 261 81
v 262 37
v 263 112
v 264 95
v 265 120
v 266 84
v 267 132
v 268 50
v 269 25
v 270 65
v 271 28
v 272 36
v 273 55
v 274 42
v 275 38
v 276 22
v 277 62
v 278 11
v 279 101
v 280 127
v 281 57
v 282 111
v 283 112
v 284 63
v 285 2
v 286 22
v 287 12
v 288 112
v 289 83
v 290 15
v 291 49
v 292 39
v 293 7
v 294 36
v 295 20
v 296 44
v 297 63
v 298 35
v 299 124
v 300 121
v 301 31
v 302 56
v 303 18
v 304 126
v 305 37
v 306 130
v 307 34
v 308 77
v 309 79
v 310 95
v 311 36
v 312 113
v 313 89
v 314 100
v 315 24
v 316 97
v 317 83
v 318 102
v 319 18
v 320 15
v 321 88
v 322 73
v 323 60
v 324 11
v 325 84
v 326 64
v 327 51
v 328 39
v 329 16
v 330 113
v 331 53
v 332 52
v 333 21
v 334 105
v 335 8
v 336 39
v 337 16
v 338 58
v 339 63
v 340 13
v 341 33
v 342 129
v 343 32
v 344 55
v 345 3
v 346 129
v 347 40
v 348 87
v 349 77
v 350 34
v 351 41
v 352 19
v 353 113
v 354 107
v 355 118
v 356 123
v 357 86
v 358 7
v 359 25
v 360 59
v 361 10
v 362 67
v 363 107
v 364 13
v 365 58
v 366 9
v 367 35
v 368 21
v 369 58
v 370 56
v 371 38
v 372 121
v 373 62
v 374 49
v 375 16
v 376 88
v 377 3
v 378 49
v 379 88
v 380 86
v 381 31
v 382 74
v 383 127
v 384 35
v 385 28
v 386 0
v 387 60
v 388 26
v 389 56
v 390 12
v 391 96
v 392 27
v 393 62
v 394 93
v 395 46
v 396 109
v 397 106
v 398 92
v 399 5
v 400 55
v 401 106
v 402 57
v 403 30
v 404 10
v 405 87
v 406 11
v 407 18
v 408 24
v 409 81
v 410 117
v 411 43
v 412 20
v 413 131
v 414 59
v 415 68
v 416 55
v 417 76
v 418 61
v 419 79
v 420 17
v 421 32
v 422 94
v 423 113
v 424 37
v 425 74
v 426 32
v 427 131
v 428 47
v 429 89
v 430 96
v 431 52
v 432 13
v 433 56
v 434 78
v 435 52
v 436 27
v 437 43
v 438 86
v 439 12
v 440 15
v 441 11
v 442 37
v 443 5
v 444 100
v 445 67
v 446 9
v 447 15
v 448 28
v 449 98
v 450 66
v 451 119
v 452 38
v 453 43
v 454 83
v 455 56
v 456 28
v 457 29
v 458 112
v 459 76
v 460 13
v 461 20
v 462 108
v 463 6
v 464 43
v 465 53
v 466 68
v 467 58
v 468 70
v 469 114
v 470 50
v 471 46
v 472 82
v 473 24
v 474 41
v 475 112
v 476 52
v 477 62
v 478 34
v 479 130
v 480 69
v 481 98
v 482 51
v 483 88
v 484 36
v 485 6
v 486 48
v 487 122
v 488 41
v 489 66
v 490 67
v 491 14
v 492 85
v 493 115
v 494 1
v 495 95
v 496 10
v 497 73
v 498 2
v 499 64
v 500 77
v 501 101
v 502 98
v 503 65
v 504 83
v 505 44
v 506 81
v 507 109
v 508 61
v 509 7
v 510 102
v 511 42
v 512 106
v 513 73
v 514 87
v 515 11
v 516 83
v 517 118
v 518 45
v 519 35
v 520 99
v 521 116
v 522 69
v 523 23
v 524 31
v 525 62
v 526 2
v 527 32
v 528 7
v 529 117
v 530 96
v 531 52
v 532 128
v 533 108
v 534 66
v 535 103
v 536 40
v 537 37
v 538 24
v 539 8
v 540 105
v 541 47
v 542 120
v 543 69
v 544 104
v 545 117
v 546 5
v 547 66
v 548 22
v 549 66
v 550 2
v 551 26
v 552 12
v 553 1
v 554 19
v 555 5
v 556 1
v 557 55
v 558 100
v 559 14
v 560 41
v 561 60
v 562 96
v 563 108
v 564 85
v 565 80
v 566 6
v 567 75
v 568 110
v 569 94
v 570 72
v 571 123
v 572 65
v 573 26
v 574 39
v 575 31
v 576 42
v 577 0
v 578 80
v 579 46
v 580 51
v 581 101
v 582 34
v 583 51
v 584 48
v 585 8
v 586 74
v 587 27
v 588 119
v 589 73
v 590 93
v 591 9
v 592 13
v 593 54
v 594 79
v 595 89
v 596 61
v 597 121
v 598 101
v 599 100
v 600 76
v 601 7
v 602 85
v 603 30
v 604 26
v 605 21
v 606 19
v 607 4
v 608 9
v 609 70
v 610 0
v 611 51
v 612 116
v 613 17
v 614 33
v 615 72
v 616 53
v 617 113
v 618 85
v 619 41
v 620 73
v 621 68
v 622 81
v 623 87
v 624 18
v 625 111
v 626 0
v 627 84
v 628 77
v 629 97
v 630 25
v 631 20
v 632 72
v 633 22
v 634 34
v 635 33
v 636 46
v 637 107
v 638 80
v 639 44
v 640 46
v 641 114
v 642 49
v 643 106
v 644 46
v 645 76
v 646 33
v 647 76
v 648 117
v 649 131
v 650 27
v 651 20
v 652 66
v 653 37
v 654 58
v 655 55
v 656 105
v 657 59
v 658 21
v 659 38
v 660 33
v 661 19
v 662 38
v 663 26
v 664 1
v 665 50
v 666 72
v 667 43
v 668 28
v 669 45
v 670 127
v 671 128
v 672 12
v 673 63
v 674 94
v 675 67
v 676 67
v 677 123
v 678 67
v 679 30
v 680 34
v 681 2
v 682 53
v 683 50
v 684 133
v 685 19
v 686 92
v 687 108
v 688 24
v 689 65
v 690 81
v 691 101
v 692 62
v 693 65
v 694 47
v 695 89
v 696 38
v 697 119
v 698 57
v 699 73
v 700 23
v 701 30
v 702 3
v 703 131
v 704 37
v 705 12
v 706 10
v 707 65
v 708 36
v 709 29
v 710 73
v 711 59
v 712 32
v 713 4
v 714 31
v 715 14
v 716 58
v 717 60
v 718 36
v 719 55
v 720 79
v 721 83
v 722 69
v 723 72
v 724 8
v 725 47
v 726 66
v 727 49
v 728 107
v 729 44
v 730 13
v 731 97
v 732 67
v 733 136
v 734 48
v 735 40
v 736 44
v 737 110
v 738 118
v 739 38
v 740 22
v 741 114
v 742 15
v 743 33
v 744 6
v 745 60
v 746 5
v 747 105
v 748 40
v 749 102
v 750 18
v 751 74
v 752 16
v 753 118
v 754 16
v 755 62
v 756 99
v 757 125
v 758 127
v 759 120
v 760 0
v 761 125
v 762 67
v 763 28
v 764 69
v 765 76
v 766 102
v 767 62
v 768 71
v 769 68
v 770 80
v 771 68
v 772 83
v 773 16
v 774 80
v 775 88
v 776 94
v 777 75
v 778 70
v 779 54
v 780 55
v 781 105
v 782 5
v 783 109
v 784 49
v 785 92
v 786 57
v 787 1
v 788 2
v 789 90
v 790 38
v 791 2
v 792 100
v 793 67
v 794 74
v 795 52
v 796 69
v 797 95
v 798 82
v 799 64
v 800 87
v 801 71
v 802 78
v 803 68
v 804 98
v 805 0
v 806 71
v 807 43
v 808 15
v 809 3
v 810 25
v 811 95
v 812 3
v 813 70
v 814 2
v 815 103
v 816 108
v 817 63
v 818 23
v 819 33
v 820 85
v 821 33
v 822 85
v 823 74
v 824 104
v 825 3
v 826 80
v 827 84
v 828 54
v 829 51
v 830 68
v 831 109
v 832 80
v 833 58
v 834 133
v 835 25
v 836 4
v 837 17
v 838 99
v 839 94
v 840 53
v 841 115
v 842 21
v 843 6
v 844 70
v 845 20
v 846 91
v 847 48
v 848 28
v 849 17
v 850 39
v 851 71
v 852 27
v 853 35
v 854 86
v 855 70
v 856 111
v 857 100
v 858 93
v 859 22
v 860 4
v 861 7
v 862 54
v 863 9
v 864 64
v 865 13
v 866 116
v 867 9
v 868 117
v 869 8
v 870 57
v 871 124
v 872 1
v 873 67
v 874 70
v 875 83
v 876 115
v 877 124
v 878 93
v 879 6
v 880 8
v 881 65
v 882 44
v 883 35
v 884 18
v 885 90
v 886 104
v 887 58
v 888 21
v 889 6
v 890 134
v 891 101
v 892 46
v 893 33
v 894 16
v 895 64
v 896 22
v 897 134
v 898 130
v 899 70
v 900 44
v 901 97
v 902 24
v 903 103
v 904 68
v 905 39
v 906 3
v 907 30
v 908 7
v 909 26
v 910 11
v 911 35
v 912 14
v 913 73
v 914 79
v 915 118
v 916 19
v 917 10
v 918 103
v 919 89
v 920 107
v 921 3
v 922 104
v 923 37
v 924 59
v 925 14
v 926 104
v 927 116
v 928 47
v 929 57
v 930 17
v 931 60
v 932 47
v 933 27
v 934 27
v 935 42
v 936 81
v 937 54
v 938 71
v 939 37
v 940 92
v 941 11
v 942 6
v 943 32
v 944 30
v 945 134
v 946 114
v 947 108
v 948 78
v 949 123
v 950 17
v 951 4
v 952 63
v 953 82
v 954 18
v 955 122
v 956 86
v 957 42
v 958 43
v 959 99
v 960 2
v 961 14
v 962 32
v 963 24
v 964 55
v 965 29
v 966 10
v 967 48
v 968 89
v 969 10
v 970 96
v 971 29
v 972 41
v 973 31
v 974 9
v 975 36
v 976 39
v 977 16
v 978 14
v 979 9
v 980 29
v 981 79
v 982 103
v 983 77
v 984 5
v 985 69
v 986 47
v 987 36
v 988 45
v 989 81
v 990 71
v 991 87
v 992 57
v 993 92
v 994 29
v 995 14
v 996 23
v 997 23
v 998 82
v 999 7
v 1000 42
